NAME : X-n459-k26
COMMENT : "Generated by Uchoa, Pecin, Pessoa, Poggi, Subramanian, and Vidal (2013)"
TYPE : CVRP
DIMENSION : 459
EDGE_WEIGHT_TYPE : EUC_2D
EDGE_WEIGHT_FORMAT : 
CAPACITY : 1106
DISTANCE : 1.79769e+308
SERVICE_TIME : 0
NODE_COORD_SECTION
1 500 500
2 832 885
3 777 632
4 406 257
5 620 467
6 343 166
7 355 345
8 393 299
9 631 767
10 384 340
11 643 630
12 786 593
13 789 727
14 443 205
15 679 408
16 845 535
17 732 820
18 890 861
19 645 689
20 800 517
21 951 643
22 828 746
23 862 625
24 606 432
25 672 984
26 580 338
27 629 494
28 809 663
29 738 595
30 604 320
31 645 532
32 688 728
33 390 680
34 842 517
35 525 404
36 697 719
37 837 853
38 741 585
39 628 506
40 354 280
41 726 834
42 721 635
43 448 363
44 963 702
45 570 484
46 389 281
47 708 380
48 522 439
49 771 523
50 778 645
51 402 318
52 817 717
53 730 655
54 814 925
55 743 362
56 568 298
57 555 132
58 937 637
59 542 678
60 822 854
61 711 697
62 603 310
63 864 674
64 850 879
65 280 198
66 502 417
67 764 610
68 729 822
69 307 258
70 896 958
71 774 732
72 684 446
73 691 793
74 905 888
75 664 411
76 875 981
77 477 226
78 607 624
79 823 875
80 558 543
81 410 237
82 712 692
83 804 678
84 491 317
85 475 280
86 881 872
87 371 269
88 520 562
89 590 431
90 420 245
91 811 647
92 501 507
93 684 647
94 739 969
95 854 717
96 844 268
97 520 823
98 866 966
99 720 645
100 564 493
101 653 541
102 831 758
103 694 804
104 661 469
105 417 251
106 683 364
107 648 479
108 255 225
109 836 934
110 811 960
111 888 492
112 111 261
113 866 827
114 822 876
115 672 419
116 750 974
117 545 420
118 140 267
119 925 749
120 505 282
121 701 477
122 427 272
123 293 242
124 757 929
125 856 861
126 848 809
127 331 214
128 682 480
129 804 638
130 349 234
131 426 194
132 499 348
133 692 700
134 331 318
135 738 644
136 967 900
137 604 563
138 701 540
139 523 429
140 834 880
141 714 644
142 369 222
143 720 566
144 606 512
145 840 926
146 786 354
147 667 709
148 670 508
149 456 202
150 827 687
151 871 800
152 556 837
153 810 589
154 537 360
155 456 275
156 688 214
157 346 163
158 880 569
159 360 215
160 849 686
161 617 420
162 308 466
163 734 534
164 880 638
165 751 763
166 616 485
167 719 744
168 371 346
169 379 420
170 565 524
171 377 138
172 864 721
173 823 535
174 367 218
175 614 761
176 659 383
177 867 910
178 717 895
179 865 793
180 588 663
181 595 488
182 408 268
183 713 863
184 652 409
185 920 394
186 819 367
187 653 425
188 618 425
189 657 290
190 709 839
191 739 541
192 909 732
193 373 218
194 375 283
195 278 391
196 843 873
197 443 229
198 756 702
199 365 293
200 821 637
201 477 191
202 401 102
203 359 290
204 791 751
205 938 787
206 709 469
207 329 178
208 559 543
209 916 882
210 758 635
211 855 710
212 797 783
213 428 238
214 802 823
215 730 542
216 797 464
217 217 29
218 939 745
219 911 889
220 829 679
221 678 523
222 709 224
223 550 429
224 821 933
225 798 482
226 686 615
227 735 658
228 728 531
229 736 452
230 721 459
231 818 377
232 421 479
233 768 524
234 498 441
235 601 454
236 851 574
237 662 511
238 526 279
239 447 601
240 889 610
241 891 930
242 483 278
243 728 845
244 451 299
245 308 215
246 643 486
247 758 963
248 439 458
249 830 608
250 387 233
251 837 948
252 561 410
253 721 439
254 778 640
255 826 627
256 644 724
257 515 465
258 728 651
259 666 474
260 759 94
261 525 419
262 927 692
263 597 228
264 448 218
265 575 349
266 921 883
267 406 172
268 840 847
269 787 660
270 301 545
271 668 880
272 594 416
273 791 861
274 740 581
275 438 272
276 500 259
277 600 464
278 965 412
279 614 568
280 829 644
281 556 518
282 660 676
283 525 793
284 623 482
285 369 195
286 805 668
287 820 936
288 879 886
289 713 679
290 728 597
291 833 719
292 720 473
293 744 569
294 739 539
295 644 446
296 896 850
297 393 284
298 708 586
299 694 612
300 446 162
301 383 213
302 738 669
303 726 702
304 749 641
305 499 397
306 335 416
307 828 951
308 634 368
309 720 559
310 428 272
311 664 226
312 772 626
313 602 466
314 592 394
315 627 408
316 754 637
317 643 572
318 699 167
319 880 867
320 493 305
321 698 630
322 819 640
323 819 577
324 860 866
325 303 326
326 523 470
327 780 647
328 630 579
329 893 578
330 545 465
331 782 723
332 639 609
333 313 267
334 810 893
335 407 307
336 808 666
337 621 427
338 841 943
339 761 602
340 513 340
341 335 150
342 807 564
343 715 936
344 818 834
345 881 870
346 300 679
347 628 402
348 697 551
349 342 373
350 819 859
351 830 955
352 651 493
353 378 248
354 675 424
355 700 76
356 398 303
357 890 373
358 799 623
359 812 806
360 770 860
361 776 711
362 661 839
363 829 895
364 392 227
365 891 565
366 569 489
367 824 716
368 827 436
369 380 217
370 527 376
371 838 855
372 537 432
373 468 195
374 714 807
375 553 104
376 448 331
377 846 863
378 815 689
379 639 332
380 748 365
381 577 442
382 572 461
383 431 304
384 731 688
385 415 256
386 933 687
387 461 392
388 827 906
389 786 737
390 825 375
391 583 513
392 793 632
393 540 374
394 604 445
395 303 293
396 802 534
397 443 308
398 298 118
399 500 353
400 818 892
401 487 444
402 744 657
403 701 547
404 297 237
405 660 436
406 580 450
407 591 411
408 877 905
409 377 314
410 868 819
411 750 857
412 643 336
413 770 609
414 873 547
415 746 949
416 771 418
417 736 788
418 676 521
419 934 919
420 673 493
421 817 914
422 493 28
423 322 227
424 746 617
425 754 950
426 523 296
427 675 488
428 860 848
429 466 251
430 772 307
431 396 235
432 796 976
433 792 646
434 417 267
435 871 536
436 285 205
437 474 257
438 854 648
439 602 262
440 950 821
441 698 633
442 760 957
443 418 292
444 690 602
445 669 683
446 565 562
447 832 811
448 797 722
449 594 646
450 597 358
451 944 834
452 776 610
453 719 441
454 832 908
455 702 378
456 604 494
457 757 832
458 647 400
459 601 706
PICKUP_AND_DELIVERY_SECTION
1 0 0 0 0 0 0
2 0 0 0 0 0 71
3 0 0 0 0 0 54
4 0 0 0 0 0 74
5 0 0 0 0 0 9
6 0 0 0 0 0 91
7 0 0 0 0 0 98
8 0 0 0 0 0 72
9 0 0 0 0 0 67
10 0 0 0 0 0 70
11 0 0 0 0 68 0
12 0 0 0 0 0 92
13 0 0 0 0 0 93
14 0 0 0 0 0 97
15 0 0 0 0 0 23
16 0 0 0 0 0 75
17 0 0 0 0 0 61
18 0 0 0 0 0 91
19 0 0 0 0 0 61
20 0 0 0 0 0 89
21 0 0 0 0 70 0
22 0 0 0 0 0 63
23 0 0 0 0 0 93
24 0 0 0 0 0 18
25 0 0 0 0 0 65
26 0 0 0 0 0 33
27 0 0 0 0 0 11
28 0 0 0 0 0 80
29 0 0 0 0 0 88
30 0 0 0 0 0 7
31 0 0 0 0 71 0
32 0 0 0 0 0 68
33 0 0 0 0 0 38
34 0 0 0 0 0 79
35 0 0 0 0 0 28
36 0 0 0 0 0 63
37 0 0 0 0 0 99
38 0 0 0 0 0 99
39 0 0 0 0 0 94
40 0 0 0 0 0 69
41 0 0 0 0 78 0
42 0 0 0 0 0 76
43 0 0 0 0 0 90
44 0 0 0 0 0 57
45 0 0 0 0 0 29
46 0 0 0 0 0 82
47 0 0 0 0 0 42
48 0 0 0 0 0 18
49 0 0 0 0 0 58
50 0 0 0 0 0 89
51 0 0 0 0 85 0
52 0 0 0 0 0 66
53 0 0 0 0 0 57
54 0 0 0 0 0 75
55 0 0 0 0 0 1
56 0 0 0 0 0 49
57 0 0 0 0 0 8
58 0 0 0 0 0 51
59 0 0 0 0 0 67
60 0 0 0 0 0 58
61 0 0 0 0 66 0
62 0 0 0 0 0 13
63 0 0 0 0 0 69
64 0 0 0 0 0 85
65 0 0 0 0 0 53
66 0 0 0 0 0 30
67 0 0 0 0 0 67
68 0 0 0 0 0 79
69 0 0 0 0 0 79
70 0 0 0 0 0 90
71 0 0 0 0 81 0
72 0 0 0 0 0 33
73 0 0 0 0 0 80
74 0 0 0 0 0 78
75 0 0 0 0 0 6
76 0 0 0 0 0 93
77 0 0 0 0 0 60
78 0 0 0 0 0 60
79 0 0 0 0 0 83
80 0 0 0 0 0 97
81 0 0 0 0 76 0
82 0 0 0 0 0 60
83 0 0 0 0 0 94
84 0 0 0 0 0 59
85 0 0 0 0 0 72
86 0 0 0 0 0 58
87 0 0 0 0 0 59
88 0 0 0 0 0 97
89 0 0 0 0 0 11
90 0 0 0 0 0 70
91 0 0 0 0 90 0
92 0 0 0 0 0 54
93 0 0 0 0 0 73
94 0 0 0 0 0 61
95 0 0 0 0 0 52
96 0 0 0 0 0 46
97 0 0 0 0 0 77
98 0 0 0 0 0 60
99 0 0 0 0 0 100
100 0 0 0 0 0 10
101 0 0 0 0 100 0
102 0 0 0 0 0 76
103 0 0 0 0 0 67
104 0 0 0 0 0 45
105 0 0 0 0 0 84
106 0 0 0 0 0 14
107 0 0 0 0 0 49
108 0 0 0 0 0 61
109 0 0 0 0 0 97
110 0 0 0 0 0 55
111 0 0 0 0 9 0
112 0 0 0 0 0 52
113 0 0 0 0 0 99
114 0 0 0 0 0 83
115 0 0 0 0 0 26
116 0 0 0 0 0 85
117 0 0 0 0 0 43
118 0 0 0 0 0 74
119 0 0 0 0 0 98
120 0 0 0 0 0 28
121 0 0 0 0 5 0
122 0 0 0 0 0 66
123 0 0 0 0 0 71
124 0 0 0 0 0 58
125 0 0 0 0 0 90
126 0 0 0 0 0 75
127 0 0 0 0 0 59
128 0 0 0 0 0 3
129 0 0 0 0 0 95
130 0 0 0 0 0 62
131 0 0 0 0 54 0
132 0 0 0 0 0 78
133 0 0 0 0 0 93
134 0 0 0 0 0 54
135 0 0 0 0 0 57
136 0 0 0 0 0 100
137 0 0 0 0 0 89
138 0 0 0 0 0 72
139 0 0 0 0 0 19
140 0 0 0 0 0 55
141 0 0 0 0 81 0
142 0 0 0 0 0 86
143 0 0 0 0 0 64
144 0 0 0 0 0 87
145 0 0 0 0 0 97
146 0 0 0 0 0 7
147 0 0 0 0 0 75
148 0 0 0 0 0 76
149 0 0 0 0 0 98
150 0 0 0 0 0 68
151 0 0 0 0 67 0
152 0 0 0 0 0 59
153 0 0 0 0 0 76
154 0 0 0 0 0 27
155 0 0 0 0 0 67
156 0 0 0 0 0 50
157 0 0 0 0 0 72
158 0 0 0 0 0 91
159 0 0 0 0 0 54
160 0 0 0 0 0 54
161 0 0 0 0 11 0
162 0 0 0 0 0 55
163 0 0 0 0 0 62
164 0 0 0 0 0 89
165 0 0 0 0 0 61
166 0 0 0 0 0 19
167 0 0 0 0 0 79
168 0 0 0 0 0 71
169 0 0 0 0 0 56
170 0 0 0 0 0 75
171 0 0 0 0 97 0
172 0 0 0 0 0 51
173 0 0 0 0 0 93
174 0 0 0 0 0 54
175 0 0 0 0 0 93
176 0 0 0 0 0 47
177 0 0 0 0 0 95
178 0 0 0 0 0 67
179 0 0 0 0 0 77
180 0 0 0 0 0 93
181 0 0 0 0 26 0
182 0 0 0 0 0 82
183 0 0 0 0 0 78
184 0 0 0 0 0 17
185 0 0 0 0 0 29
186 0 0 0 0 0 25
187 0 0 0 0 0 22
188 0 0 0 0 0 22
189 0 0 0 0 0 4
190 0 0 0 0 0 100
191 0 0 0 0 71 0
192 0 0 0 0 0 93
193 0 0 0 0 0 84
194 0 0 0 0 0 51
195 0 0 0 0 0 94
196 0 0 0 0 0 74
197 0 0 0 0 0 59
198 0 0 0 0 0 62
199 0 0 0 0 0 81
200 0 0 0 0 0 73
201 0 0 0 0 91 0
202 0 0 0 0 0 98
203 0 0 0 0 0 56
204 0 0 0 0 0 92
205 0 0 0 0 0 95
206 0 0 0 0 0 20
207 0 0 0 0 0 99
208 0 0 0 0 0 53
209 0 0 0 0 0 74
210 0 0 0 0 0 75
211 0 0 0 0 63 0
212 0 0 0 0 0 86
213 0 0 0 0 0 53
214 0 0 0 0 0 62
215 0 0 0 0 0 93
216 0 0 0 0 0 29
217 0 0 0 0 0 73
218 0 0 0 0 0 99
219 0 0 0 0 0 74
220 0 0 0 0 0 69
221 0 0 0 0 51 0
222 0 0 0 0 0 29
223 0 0 0 0 0 10
224 0 0 0 0 0 56
225 0 0 0 0 0 33
226 0 0 0 0 0 92
227 0 0 0 0 0 90
228 0 0 0 0 0 58
229 0 0 0 0 0 15
230 0 0 0 0 0 3
231 0 0 0 0 20 0
232 0 0 0 0 0 59
233 0 0 0 0 0 98
234 0 0 0 0 0 91
235 0 0 0 0 0 14
236 0 0 0 0 0 53
237 0 0 0 0 0 52
238 0 0 0 0 0 37
239 0 0 0 0 0 47
240 0 0 0 0 0 79
241 0 0 0 0 92 0
242 0 0 0 0 0 90
243 0 0 0 0 0 54
244 0 0 0 0 0 95
245 0 0 0 0 0 66
246 0 0 0 0 0 2
247 0 0 0 0 0 80
248 0 0 0 0 0 74
249 0 0 0 0 0 62
250 0 0 0 0 0 70
251 0 0 0 0 75 0
252 0 0 0 0 0 11
253 0 0 0 0 0 9
254 0 0 0 0 0 99
255 0 0 0 0 0 63
256 0 0 0 0 0 89
257 0 0 0 0 0 6
258 0 0 0 0 0 90
259 0 0 0 0 0 29
260 0 0 0 0 0 18
261 0 0 0 0 16 0
262 0 0 0 0 0 97
263 0 0 0 0 0 6
264 0 0 0 0 0 100
265 0 0 0 0 0 46
266 0 0 0 0 0 85
267 0 0 0 0 0 95
268 0 0 0 0 0 78
269 0 0 0 0 0 83
270 0 0 0 0 0 45
271 0 0 0 0 53 0
272 0 0 0 0 0 34
273 0 0 0 0 0 89
274 0 0 0 0 0 87
275 0 0 0 0 0 92
276 0 0 0 0 0 24
277 0 0 0 0 0 38
278 0 0 0 0 0 39
279 0 0 0 0 0 85
280 0 0 0 0 0 81
281 0 0 0 0 73 0
282 0 0 0 0 0 51
283 0 0 0 0 0 62
284 0 0 0 0 0 49
285 0 0 0 0 0 67
286 0 0 0 0 0 73
287 0 0 0 0 0 73
288 0 0 0 0 0 91
289 0 0 0 0 0 82
290 0 0 0 0 0 57
291 0 0 0 0 77 0
292 0 0 0 0 0 48
293 0 0 0 0 0 71
294 0 0 0 0 0 83
295 0 0 0 0 0 15
296 0 0 0 0 0 54
297 0 0 0 0 0 73
298 0 0 0 0 0 80
299 0 0 0 0 0 77
300 0 0 0 0 0 65
301 0 0 0 0 51 0
302 0 0 0 0 0 67
303 0 0 0 0 0 96
304 0 0 0 0 0 53
305 0 0 0 0 0 94
306 0 0 0 0 0 73
307 0 0 0 0 0 78
308 0 0 0 0 0 37
309 0 0 0 0 0 97
310 0 0 0 0 0 64
311 0 0 0 0 23 0
312 0 0 0 0 0 55
313 0 0 0 0 0 30
314 0 0 0 0 0 43
315 0 0 0 0 0 35
316 0 0 0 0 0 76
317 0 0 0 0 0 65
318 0 0 0 0 0 9
319 0 0 0 0 0 68
320 0 0 0 0 0 60
321 0 0 0 0 57 0
322 0 0 0 0 0 97
323 0 0 0 0 0 63
324 0 0 0 0 0 51
325 0 0 0 0 0 65
326 0 0 0 0 0 46
327 0 0 0 0 0 70
328 0 0 0 0 0 63
329 0 0 0 0 0 86
330 0 0 0 0 0 15
331 0 0 0 0 90 0
332 0 0 0 0 0 62
333 0 0 0 0 0 62
334 0 0 0 0 0 56
335 0 0 0 0 0 63
336 0 0 0 0 0 93
337 0 0 0 0 0 31
338 0 0 0 0 0 90
339 0 0 0 0 0 58
340 0 0 0 0 0 10
341 0 0 0 0 100 0
342 0 0 0 0 0 67
343 0 0 0 0 0 78
344 0 0 0 0 0 94
345 0 0 0 0 0 91
346 0 0 0 0 0 11
347 0 0 0 0 0 19
348 0 0 0 0 0 52
349 0 0 0 0 0 52
350 0 0 0 0 0 54
351 0 0 0 0 87 0
352 0 0 0 0 0 41
353 0 0 0 0 0 77
354 0 0 0 0 0 21
355 0 0 0 0 0 37
356 0 0 0 0 0 61
357 0 0 0 0 0 32
358 0 0 0 0 0 86
359 0 0 0 0 0 67
360 0 0 0 0 0 59
361 0 0 0 0 53 0
362 0 0 0 0 0 82
363 0 0 0 0 0 55
364 0 0 0 0 0 63
365 0 0 0 0 0 62
366 0 0 0 0 0 25
367 0 0 0 0 0 59
368 0 0 0 0 0 24
369 0 0 0 0 0 65
370 0 0 0 0 0 22
371 0 0 0 0 90 0
372 0 0 0 0 0 7
373 0 0 0 0 0 67
374 0 0 0 0 0 86
375 0 0 0 0 0 19
376 0 0 0 0 0 93
377 0 0 0 0 0 80
378 0 0 0 0 0 63
379 0 0 0 0 0 34
380 0 0 0 0 0 1
381 0 0 0 0 14 0
382 0 0 0 0 0 1
383 0 0 0 0 0 87
384 0 0 0 0 0 63
385 0 0 0 0 0 55
386 0 0 0 0 0 94
387 0 0 0 0 0 59
388 0 0 0 0 0 62
389 0 0 0 0 0 71
390 0 0 0 0 0 37
391 0 0 0 0 79 0
392 0 0 0 0 0 83
393 0 0 0 0 0 50
394 0 0 0 0 0 46
395 0 0 0 0 0 76
396 0 0 0 0 0 65
397 0 0 0 0 0 95
398 0 0 0 0 0 71
399 0 0 0 0 0 21
400 0 0 0 0 0 100
401 0 0 0 0 66 0
402 0 0 0 0 0 97
403 0 0 0 0 0 80
404 0 0 0 0 0 100
405 0 0 0 0 0 34
406 0 0 0 0 0 5
407 0 0 0 0 0 32
408 0 0 0 0 0 76
409 0 0 0 0 0 78
410 0 0 0 0 0 94
411 0 0 0 0 53 0
412 0 0 0 0 0 36
413 0 0 0 0 0 73
414 0 0 0 0 0 85
415 0 0 0 0 0 55
416 0 0 0 0 0 31
417 0 0 0 0 0 66
418 0 0 0 0 0 98
419 0 0 0 0 0 94
420 0 0 0 0 0 1
421 0 0 0 0 60 0
422 0 0 0 0 0 93
423 0 0 0 0 0 67
424 0 0 0 0 0 85
425 0 0 0 0 0 76
426 0 0 0 0 0 16
427 0 0 0 0 0 32
428 0 0 0 0 0 76
429 0 0 0 0 0 65
430 0 0 0 0 0 8
431 0 0 0 0 68 0
432 0 0 0 0 0 54
433 0 0 0 0 0 58
434 0 0 0 0 0 92
435 0 0 0 0 0 64
436 0 0 0 0 0 85
437 0 0 0 0 0 66
438 0 0 0 0 0 64
439 0 0 0 0 0 4
440 0 0 0 0 0 57
441 0 0 0 0 73 0
442 0 0 0 0 0 88
443 0 0 0 0 0 89
444 0 0 0 0 0 72
445 0 0 0 0 0 73
446 0 0 0 0 0 89
447 0 0 0 0 0 74
448 0 0 0 0 0 56
449 0 0 0 0 0 79
450 0 0 0 0 0 41
451 0 0 0 0 62 0
452 0 0 0 0 0 59
453 0 0 0 0 0 28
454 0 0 0 0 0 72
455 0 0 0 0 0 31
456 0 0 0 0 0 45
457 0 0 0 0 0 80
458 0 0 0 0 0 48
459 0 0 0 0 0 99
